# Objective value = 5
x0,1_5 0
x0,1_19 0
x0,1_22 0
x0,1_24 1
x0,1_29 0
x0,1_41 0
x0,1_46 0
x0,1_48 0
x0,1_70 0
x0,2_5 0
x0,2_19 0
x0,2_22 0
x0,2_24 0
x0,2_29 1
x0,2_41 0
x0,2_46 0
x0,2_48 0
x0,2_70 0
x0,3_5 0
x0,3_19 0
x0,3_22 0
x0,3_24 0
x0,3_29 0
x0,3_41 0
x0,3_46 0
x0,3_48 1
x0,3_70 0
x0,4_5 0
x0,4_19 0
x0,4_22 0
x0,4_24 0
x0,4_29 0
x0,4_41 0
x0,4_46 0
x0,4_48 0
x0,4_70 1
x0,5_5 0
x0,5_19 0
x0,5_22 0
x0,5_24 0
x0,5_29 0
x0,5_41 0
x0,5_46 0
x0,5_48 0
x0,5_70 0
x0,6_5 0
x0,6_19 0
x0,6_22 0
x0,6_24 0
x0,6_29 0
x0,6_41 0
x0,6_46 0
x0,6_48 0
x0,6_70 0
x0,7_5 0
x0,7_19 0
x0,7_22 0
x0,7_24 0
x0,7_29 0
x0,7_41 0
x0,7_46 0
x0,7_48 0
x0,7_70 0
x0,8_5 0
x0,8_19 0
x0,8_22 0
x0,8_24 0
x0,8_29 0
x0,8_41 0
x0,8_46 0
x0,8_48 0
x0,8_70 0
x0,9_5 0
x0,9_19 0
x0,9_22 0
x0,9_24 0
x0,9_29 0
x0,9_41 0
x0,9_46 0
x0,9_48 0
x0,9_70 0
x0,10_5 0
x0,10_19 0
x0,10_22 0
x0,10_24 0
x0,10_29 0
x0,10_41 0
x0,10_46 0
x0,10_48 0
x0,10_70 0
x1,2_5 1
x1,2_19 0
x1,2_22 0
x1,2_24 0
x1,2_29 0
x1,2_41 0
x1,2_46 0
x1,2_48 0
x1,2_70 0
x1,3_5 0
x1,3_19 0
x1,3_22 0
x1,3_24 1
x1,3_29 0
x1,3_41 0
x1,3_46 0
x1,3_48 0
x1,3_70 0
x1,4_5 0
x1,4_19 0
x1,4_22 0
x1,4_24 0
x1,4_29 0
x1,4_41 0
x1,4_46 1
x1,4_48 0
x1,4_70 0
x1,5_5 0
x1,5_19 0
x1,5_22 0
x1,5_24 0
x1,5_29 0
x1,5_41 0
x1,5_46 0
x1,5_48 0
x1,5_70 0
x1,6_5 0
x1,6_19 0
x1,6_22 0
x1,6_24 0
x1,6_29 0
x1,6_41 0
x1,6_46 0
x1,6_48 0
x1,6_70 0
x1,7_5 0
x1,7_19 0
x1,7_22 0
x1,7_24 0
x1,7_29 0
x1,7_41 0
x1,7_46 0
x1,7_48 0
x1,7_70 0
x1,8_5 0
x1,8_19 0
x1,8_22 0
x1,8_24 0
x1,8_29 0
x1,8_41 0
x1,8_46 0
x1,8_48 0
x1,8_70 0
x1,9_5 0
x1,9_19 0
x1,9_22 0
x1,9_24 0
x1,9_29 0
x1,9_41 0
x1,9_46 0
x1,9_48 0
x1,9_70 0
x1,10_5 0
x1,10_19 0
x1,10_22 0
x1,10_24 0
x1,10_29 0
x1,10_41 0
x1,10_46 0
x1,10_48 0
x1,10_70 0
x2,3_5 0
x2,3_19 1
x2,3_22 0
x2,3_24 0
x2,3_29 0
x2,3_41 0
x2,3_46 0
x2,3_48 0
x2,3_70 0
x2,4_5 0
x2,4_19 0
x2,4_22 0
x2,4_24 0
x2,4_29 0
x2,4_41 1
x2,4_46 0
x2,4_48 0
x2,4_70 0
x2,5_5 0
x2,5_19 0
x2,5_22 0
x2,5_24 0
x2,5_29 0
x2,5_41 0
x2,5_46 0
x2,5_48 0
x2,5_70 0
x2,6_5 0
x2,6_19 0
x2,6_22 0
x2,6_24 0
x2,6_29 0
x2,6_41 0
x2,6_46 0
x2,6_48 0
x2,6_70 0
x2,7_5 0
x2,7_19 0
x2,7_22 0
x2,7_24 0
x2,7_29 0
x2,7_41 0
x2,7_46 0
x2,7_48 0
x2,7_70 0
x2,8_5 0
x2,8_19 0
x2,8_22 0
x2,8_24 0
x2,8_29 0
x2,8_41 0
x2,8_46 0
x2,8_48 0
x2,8_70 0
x2,9_5 0
x2,9_19 0
x2,9_22 0
x2,9_24 0
x2,9_29 0
x2,9_41 0
x2,9_46 0
x2,9_48 0
x2,9_70 0
x2,10_5 0
x2,10_19 0
x2,10_22 0
x2,10_24 0
x2,10_29 0
x2,10_41 0
x2,10_46 0
x2,10_48 0
x2,10_70 0
x3,4_5 0
x3,4_19 0
x3,4_22 1
x3,4_24 0
x3,4_29 0
x3,4_41 0
x3,4_46 0
x3,4_48 0
x3,4_70 0
x3,5_5 0
x3,5_19 0
x3,5_22 0
x3,5_24 0
x3,5_29 0
x3,5_41 0
x3,5_46 0
x3,5_48 0
x3,5_70 0
x3,6_5 0
x3,6_19 0
x3,6_22 0
x3,6_24 0
x3,6_29 0
x3,6_41 0
x3,6_46 0
x3,6_48 0
x3,6_70 0
x3,7_5 0
x3,7_19 0
x3,7_22 0
x3,7_24 0
x3,7_29 0
x3,7_41 0
x3,7_46 0
x3,7_48 0
x3,7_70 0
x3,8_5 0
x3,8_19 0
x3,8_22 0
x3,8_24 0
x3,8_29 0
x3,8_41 0
x3,8_46 0
x3,8_48 0
x3,8_70 0
x3,9_5 0
x3,9_19 0
x3,9_22 0
x3,9_24 0
x3,9_29 0
x3,9_41 0
x3,9_46 0
x3,9_48 0
x3,9_70 0
x3,10_5 0
x3,10_19 0
x3,10_22 0
x3,10_24 0
x3,10_29 0
x3,10_41 0
x3,10_46 0
x3,10_48 0
x3,10_70 0
x4,5_5 0
x4,5_19 0
x4,5_22 0
x4,5_24 0
x4,5_29 0
x4,5_41 0
x4,5_46 0
x4,5_48 0
x4,5_70 0
x4,6_5 0
x4,6_19 0
x4,6_22 0
x4,6_24 0
x4,6_29 0
x4,6_41 0
x4,6_46 0
x4,6_48 0
x4,6_70 0
x4,7_5 0
x4,7_19 0
x4,7_22 0
x4,7_24 0
x4,7_29 0
x4,7_41 0
x4,7_46 0
x4,7_48 0
x4,7_70 0
x4,8_5 0
x4,8_19 0
x4,8_22 0
x4,8_24 0
x4,8_29 0
x4,8_41 0
x4,8_46 0
x4,8_48 0
x4,8_70 0
x4,9_5 0
x4,9_19 0
x4,9_22 0
x4,9_24 0
x4,9_29 0
x4,9_41 0
x4,9_46 0
x4,9_48 0
x4,9_70 0
x4,10_5 0
x4,10_19 0
x4,10_22 0
x4,10_24 0
x4,10_29 0
x4,10_41 0
x4,10_46 0
x4,10_48 0
x4,10_70 0
x5,6_5 0
x5,6_19 0
x5,6_22 0
x5,6_24 0
x5,6_29 0
x5,6_41 0
x5,6_46 0
x5,6_48 0
x5,6_70 0
x5,7_5 0
x5,7_19 0
x5,7_22 0
x5,7_24 0
x5,7_29 0
x5,7_41 0
x5,7_46 0
x5,7_48 0
x5,7_70 0
x5,8_5 0
x5,8_19 0
x5,8_22 0
x5,8_24 0
x5,8_29 0
x5,8_41 0
x5,8_46 0
x5,8_48 0
x5,8_70 0
x5,9_5 0
x5,9_19 0
x5,9_22 0
x5,9_24 0
x5,9_29 0
x5,9_41 0
x5,9_46 0
x5,9_48 0
x5,9_70 0
x5,10_5 0
x5,10_19 0
x5,10_22 0
x5,10_24 0
x5,10_29 0
x5,10_41 0
x5,10_46 0
x5,10_48 0
x5,10_70 0
x6,7_5 0
x6,7_19 0
x6,7_22 0
x6,7_24 0
x6,7_29 0
x6,7_41 0
x6,7_46 0
x6,7_48 0
x6,7_70 0
x6,8_5 0
x6,8_19 0
x6,8_22 0
x6,8_24 0
x6,8_29 0
x6,8_41 0
x6,8_46 0
x6,8_48 0
x6,8_70 0
x6,9_5 0
x6,9_19 0
x6,9_22 0
x6,9_24 0
x6,9_29 0
x6,9_41 0
x6,9_46 0
x6,9_48 0
x6,9_70 0
x6,10_5 0
x6,10_19 0
x6,10_22 0
x6,10_24 0
x6,10_29 0
x6,10_41 0
x6,10_46 0
x6,10_48 0
x6,10_70 0
x7,8_5 0
x7,8_19 0
x7,8_22 0
x7,8_24 0
x7,8_29 0
x7,8_41 0
x7,8_46 0
x7,8_48 0
x7,8_70 0
x7,9_5 0
x7,9_19 0
x7,9_22 0
x7,9_24 0
x7,9_29 0
x7,9_41 0
x7,9_46 0
x7,9_48 0
x7,9_70 0
x7,10_5 0
x7,10_19 0
x7,10_22 0
x7,10_24 0
x7,10_29 0
x7,10_41 0
x7,10_46 0
x7,10_48 0
x7,10_70 0
x8,9_5 0
x8,9_19 0
x8,9_22 0
x8,9_24 0
x8,9_29 0
x8,9_41 0
x8,9_46 0
x8,9_48 0
x8,9_70 0
x8,10_5 0
x8,10_19 0
x8,10_22 0
x8,10_24 0
x8,10_29 0
x8,10_41 0
x8,10_46 0
x8,10_48 0
x8,10_70 0
x9,10_5 0
x9,10_19 0
x9,10_22 0
x9,10_24 0
x9,10_29 0
x9,10_41 0
x9,10_46 0
x9,10_48 0
x9,10_70 0
z0 1
z1 1
z2 1
z3 1
z4 1
z5 0
z6 0
z7 0
z8 0
z9 0
z10 0
p0 0
p1 24
p2 29
p3 48
p4 70
p5 77
p6 78
p7 92
p8 93
p9 94
p10 95
